certificates/rado_a11_c49_N35.cnf
c Rad2 upper bound instance: x1 + 11*x2 - x3 = 49, interval [1,35]
p cnf 35 220
1 5 7 0
-1 -5 -7 0
1 6 18 0
-1 -6 -18 0
1 7 29 0
-1 -7 -29 0
2 5 8 0
-2 -5 -8 0
2 6 19 0
-2 -6 -19 0
2 7 30 0
-2 -7 -30 0
3 5 9 0
-3 -5 -9 0
3 6 20 0
-3 -6 -20 0
3 7 31 0
-3 -7 -31 0
4 5 10 0
-4 -5 -10 0
4 6 21 0
-4 -6 -21 0
4 7 32 0
-4 -7 -32 0
5 11 0
-5 -11 0
5 6 22 0
-5 -6 -22 0
5 7 33 0
-5 -7 -33 0
1 4 6 0
-1 -4 -6 0
5 6 12 0
-5 -6 -12 0
6 23 0
-6 -23 0
6 7 34 0
-6 -7 -34 0
2 4 7 0
-2 -4 -7 0
5 7 13 0
-5 -7 -13 0
6 7 24 0
-6 -7 -24 0
7 35 0
-7 -35 0
3 4 8 0
-3 -4 -8 0
5 8 14 0
-5 -8 -14 0
6 8 25 0
-6 -8 -25 0
4 9 0
-4 -9 0
5 9 15 0
-5 -9 -15 0
6 9 26 0
-6 -9 -26 0
5 10 16 0
-5 -10 -16 0
6 10 27 0
-6 -10 -27 0
4 6 11 0
-4 -6 -11 0
5 11 17 0
-5 -11 -17 0
6 11 28 0
-6 -11 -28 0
4 7 12 0
-4 -7 -12 0
5 12 18 0
-5 -12 -18 0
6 12 29 0
-6 -12 -29 0
4 8 13 0
-4 -8 -13 0
5 13 19 0
-5 -13 -19 0
6 13 30 0
-6 -13 -30 0
4 9 14 0
-4 -9 -14 0
5 14 20 0
-5 -14 -20 0
6 14 31 0
-6 -14 -31 0
4 10 15 0
-4 -10 -15 0
5 15 21 0
-5 -15 -21 0
6 15 32 0
-6 -15 -32 0
4 11 16 0
-4 -11 -16 0
5 16 22 0
-5 -16 -22 0
6 16 33 0
-6 -16 -33 0
1 3 17 0
-1 -3 -17 0
4 12 17 0
-4 -12 -17 0
5 17 23 0
-5 -17 -23 0
6 17 34 0
-6 -17 -34 0
2 3 18 0
-2 -3 -18 0
4 13 18 0
-4 -13 -18 0
5 18 24 0
-5 -18 -24 0
6 18 35 0
-6 -18 -35 0
3 19 0
-3 -19 0
4 14 19 0
-4 -14 -19 0
5 19 25 0
-5 -19 -25 0
3 4 20 0
-3 -4 -20 0
4 15 20 0
-4 -15 -20 0
5 20 26 0
-5 -20 -26 0
3 5 21 0
-3 -5 -21 0
4 16 21 0
-4 -16 -21 0
5 21 27 0
-5 -21 -27 0
3 6 22 0
-3 -6 -22 0
4 17 22 0
-4 -17 -22 0
5 22 28 0
-5 -22 -28 0
3 7 23 0
-3 -7 -23 0
4 18 23 0
-4 -18 -23 0
5 23 29 0
-5 -23 -29 0
3 8 24 0
-3 -8 -24 0
4 19 24 0
-4 -19 -24 0
5 24 30 0
-5 -24 -30 0
3 9 25 0
-3 -9 -25 0
4 20 25 0
-4 -20 -25 0
5 25 31 0
-5 -25 -31 0
3 10 26 0
-3 -10 -26 0
4 21 26 0
-4 -21 -26 0
5 26 32 0
-5 -26 -32 0
3 11 27 0
-3 -11 -27 0
4 22 27 0
-4 -22 -27 0
5 27 33 0
-5 -27 -33 0
1 2 28 0
-1 -2 -28 0
3 12 28 0
-3 -12 -28 0
4 23 28 0
-4 -23 -28 0
5 28 34 0
-5 -28 -34 0
2 29 0
-2 -29 0
3 13 29 0
-3 -13 -29 0
4 24 29 0
-4 -24 -29 0
5 29 35 0
-5 -29 -35 0
2 3 30 0
-2 -3 -30 0
3 14 30 0
-3 -14 -30 0
4 25 30 0
-4 -25 -30 0
2 4 31 0
-2 -4 -31 0
3 15 31 0
-3 -15 -31 0
4 26 31 0
-4 -26 -31 0
2 5 32 0
-2 -5 -32 0
3 16 32 0
-3 -16 -32 0
4 27 32 0
-4 -27 -32 0
2 6 33 0
-2 -6 -33 0
3 17 33 0
-3 -17 -33 0
4 28 33 0
-4 -28 -33 0
2 7 34 0
-2 -7 -34 0
3 18 34 0
-3 -18 -34 0
4 29 34 0
-4 -29 -34 0
2 8 35 0
-2 -8 -35 0
3 19 35 0
-3 -19 -35 0
4 30 35 0
-4 -30 -35 0
