certificates/rado_a11_c49_N35.drat
-30 -35 0
4 -25 8 0
5 20 -4 6 0
6 -35 0
-6 -1 0
d -6 -18 -1 0
-35 0
7 0
4 0
-2 0
-9 0
-12 0
-32 0
29 0
8 0
5 0
-1 0
-24 0
-34 0
-13 0
-3 0
-11 0
-33 0
-23 0
-14 0
-10 0
28 0
17 0
18 0
19 0
30 0
25 0
16 0
27 0
6 0
26 0
-22 0
0
